Test: chnl11_20.cnf
Options: -no-inverting-opt -sym-var-bump
WARNING: for repeatability, setting FPU to use double precision
============================[ Problem Statistics ]=============================
|                                                                             |
|  Number of symmetries:           59                                         |
|  Number of invertingSyms:         0                                         |
|  Number of variables:           440                                         |
|  Number of clauses:            4220                                         |
|  Parse time:                   0.00 s                                       |
|                                                                             |
============================[ Search Statistics ]==============================
| Conflicts |          ORIGINAL         |          LEARNT          | Progress |
|           |    Vars  Clauses Literals |    Limit  Clauses Lit/Cl |          |
===============================================================================
|       100 |     440     4220     8800 |     1547      318     43 |  0.001 % |
|       250 |     440     4220     8800 |     1702      630     44 |  0.001 % |
|       475 |     440     4220     8800 |     1872     1166     46 |  0.001 % |
|       812 |     440     4220     8800 |     2059     1148     45 |  0.001 % |
|      1318 |     440     4220     8800 |     2265     1421     44 |  0.001 % |
|      2077 |     440     4220     8800 |     2491     1723     49 |  0.001 % |
===============================================================================
restarts              : 15
conflicts             : 3141           (30200 /sec)
symconflicts          : 628            (6038 /sec)
decisions             : 5659           (0.00 % random) (54410 /sec)
propagations          : 105165         (1011144 /sec)
sympropagations       : 4736           (45536 /sec)
conflict literals     : 150646         (5.19 % deleted)
literals     : 150646         (5.19 % deleted)

HEURISTIC USAGES
random                : 0           
activity w/ lookahead : 0           
activity no lookahead : 0           
original sp           : 5659        
sym count             : 0           

Memory used           : 6.00 MB
CPU time              : 0.104006 s

UNSATISFIABLE
